Running for instance ./models/c202.txt
Generating routes...
Execution time:  5.021483  seconds
Academic license - for non-commercial use only
Warning: constraint name "Cliente esta na rota x1" has a space
Optimize a model with 26 rows, 10000 columns and 71374 nonzeros
Variable types: 0 continuous, 10000 integer (0 binary)
Coefficient statistics:
  Matrix range     [1e+00, 1e+00]
  Objective range  [2e+01, 2e+02]
  Bounds range     [1e+00, 1e+00]
  RHS range        [1e+00, 2e+01]
Found heuristic solution: objective 613.9075523
Presolve removed 1 rows and 2481 columns
Presolve time: 0.06s
Presolved: 25 rows, 7519 columns, 46012 nonzeros
Variable types: 0 continuous, 7519 integer (7519 binary)

Root relaxation: objective 3.371727e+02, 107 iterations, 0.01 seconds

    Nodes    |    Current Node    |     Objective Bounds      |     Work
 Expl Unexpl |  Obj  Depth IntInf | Incumbent    BestBd   Gap | It/Node Time

     0     0  337.17273    0   25  613.90755  337.17273  45.1%     -    0s
H    0     0                     432.4635850  337.17273  22.0%     -    0s
     0     0  337.17273    0   25  432.46359  337.17273  22.0%     -    0s
H    0     0                     371.5476260  337.17273  9.25%     -    0s
     0     0  342.00574    0   24  371.54763  342.00574  7.95%     -    0s
H    0     0                     361.4767488  342.00574  5.39%     -    0s
H    0     0                     360.1289303  342.00574  5.03%     -    0s
     0     0  342.00574    0   24  360.12893  342.00574  5.03%     -    0s

Explored 1 nodes (208 simplex iterations) in 0.37 seconds
Thread count was 8 (of 8 available processors)

Solution count 5: 360.129 361.477 371.548 ... 613.908

Optimal solution found (tolerance 1.00e-04)
Best objective 3.601289302917e+02, best bound 3.601289302917e+02, gap 0.0000%

Routes:
20 22 24
21 25 10 2 1 7 5
4 3 12 13 9 11 8
6 23 18 19 16 14 15 17

Distance: 360.128930292
Execution time:  6.247333  seconds
